problems/csplib-prob006-decision/GolombRuler-models/01_noch_lvlPruned/O2/minion/model_1-08-0050-solution000001.eprime-solution
language ESSENCE' 1.0

letting Ticks_Occurrence be
        [true, false, false, false, false, false, false, false, false, false, false, false, false, false, false, false,
         false, false, false, false, false, false, false, false, true, false, false, false, true, false, false, false,
         false, false, false, false, false, false, true, false, false, true, false, true, false, false, false, false,
         false, true, true;
             int(0..50)]
