problems/csplib-prob006-decision/GolombRuler-models/compact/O2/minion/model_1-08-0050-solution000001.solution
language Essence 1.3

letting Ticks be {0, 24, 28, 38, 41, 43, 49, 50}
